Version identifier: 20.1.0.0 | 2020-11-10 | 9bedb6d68
CPXPARAM_Threads                                 1
CPXPARAM_TimeLimit                               7200
CPXPARAM_MIP_Tolerances_MIPGap                   0
Generic callback                                 0x60
1 of 1 MIP starts provided solutions.
MIP start 'm1' defined initial solution with objective 3184.7157.
Tried aggregator 1 time.
Reduced MIP has 1001001 rows, 1001001 columns, and 3001000 nonzeros.
Reduced MIP has 1000 binaries, 0 generals, 0 SOSs, and 0 indicators.
Presolve time = 0.96 sec. (798.63 ticks)
Probing time = 0.14 sec. (125.04 ticks)
Tried aggregator 1 time.
Reduced MIP has 1001001 rows, 1001001 columns, and 3001000 nonzeros.
Reduced MIP has 1000 binaries, 0 generals, 0 SOSs, and 0 indicators.
Presolve time = 0.89 sec. (782.41 ticks)
Probing time = 0.13 sec. (125.04 ticks)
MIP emphasis: balance optimality and feasibility.
MIP search method: dynamic search.
Parallel mode: none, using 1 thread.
Root relaxation solution time = 0.33 sec. (385.39 ticks)

        Nodes                                         Cuts/
   Node  Left     Objective  IInf  Best Integer    Best Bound    ItCnt     Gap

*     0+    0                         3184.7157     5432.0000            70.56%
      0     0     3403.5977    65     3184.7157     5432.0000        0   70.56%
      0     2     3403.5977    65     3184.7157     3403.5977        0    6.87%
Elapsed time = 2252.87 sec. (2461791.43 ticks, tree = 0.01 MB, solutions = 1)
*     1     1      integral     0     3191.4878     3403.5977    28357    6.65%
      2     0        cutoff           3191.4878     3191.4878    41255    0.00%

User cuts applied:  3

Root node processing (before b&c):
  Real time             = 2252.84 sec. (2461770.75 ticks)
Sequential b&c:
  Real time             =  267.62 sec. (162467.01 ticks)
                          ------------
Total (root+branch&cut) = 2520.45 sec. (2624237.76 ticks)
@Parameters: 
is_S_cut                                true
is_add_all_yinF                         true
is_start_value                          true
is_usercut                              true
is_visualization                        false
uc_only_rootnode                        false

data                                    Qi
fn                                      data/Qi/instance_1000_1000.csv
mode                                    ZLP
solver                                  cplex

p                                       10
r                                       5

EPS                                     1.0e-06
EPS_vio                                 1.0e-04
beta                                    0.10
gap                                     0.00
nodelimit                               Inf
timelimit                               7200.00


@PrintInfos
ItCnt: 41255
Current gap: 0.00 %
Termination Status: OPTIMAL
Primal Status: FEASIBLE_POINT
Solve Time: 2520.45 sec
Objective Value: 3191.487829
Number of Nodes:      3

CutInfo: [phase] num / time (sec) 
ZLP             [phase1]     0 / 0.00 [rLC]     2 / 18.43 [rUC]     2 / 12.86 [sLC]     1 / 9.50 [sUC]     1 / 6.53 
OldSubmodular   [phase1]     0 / 0.00 [rLC]     0 / 0.00 [rUC]     0 / 0.00 [sLC]     0 / 0.00 [sUC]     0 / 0.00 
NewSubmodular   [phase1]     0 / 0.00 [rLC]     0 / 0.00 [rUC]     0 / 0.00 [sLC]     0 / 0.00 [sUC]     0 / 0.00 
PMP             [phase1]     0 / 0.00 [rLC]     3 / 14.52 [rUC]     2 / 6.62 [sLC]     2 / 7.91 [sUC]     1 / 3.25 
Separation Round: [phase1] 0  [rLC] 3  [rUC] 2  [sLC] 2  [sUC] 1
Root Best Bound 3191.487829
Root Best Integer: 3191.487829
Best Bound: 3191.487829
Best Integer: 3191.487829

